clingo version 5.5.2
Reading from ...nt/beegfs/home/jubruns/encoding/mif.lp ...
Solving...
Answer: 1
move(1,(29,13),(29,14),2) move(1,(29,14),(29,15),4) move(1,(29,15),(29,16),5) move(1,(29,16),(29,17),6) move(1,(29,17),(29,16),7) move(1,(29,16),(28,16),8) move(1,(28,16),(28,15),9) move(1,(28,15),(27,15),10) move(1,(27,15),(26,15),11) move(1,(26,15),(26,14),13) move(1,(26,14),(27,14),14) move(1,(27,14),(26,14),17) move(1,(26,14),(27,14),18) move(1,(27,14),(26,14),19) move(1,(26,14),(25,14),20) move(1,(25,14),(26,14),22) move(1,(26,14),(26,15),23) move(1,(26,15),(26,16),24) move(1,(26,16),(27,16),25) move(1,(27,16),(28,16),26) move(2,(26,20),(27,20),3) move(2,(27,20),(28,20),4) move(2,(28,20),(28,19),5) move(2,(28,19),(29,19),6) move(2,(29,19),(28,19),7) move(2,(28,19),(28,20),8) move(2,(28,20),(27,20),10) move(2,(27,20),(27,21),11) move(2,(27,21),(27,20),12) move(2,(27,20),(28,20),13) move(2,(28,20),(27,20),14) move(2,(27,20),(28,20),15) move(2,(28,20),(28,21),16) move(2,(28,21),(27,21),17) move(2,(27,21),(27,20),18) move(2,(27,20),(26,20),21) move(2,(26,20),(26,21),24) move(2,(26,21),(26,22),26) move(3,(24,5),(23,5),1) move(3,(23,5),(22,5),2) move(3,(22,5),(21,5),3) move(3,(21,5),(20,5),4) move(3,(20,5),(19,5),5) move(3,(19,5),(19,6),6) move(3,(19,6),(19,7),7) move(3,(19,7),(19,8),8) move(3,(19,8),(19,9),9) move(3,(19,9),(18,9),10) move(3,(18,9),(17,9),11) move(3,(17,9),(16,9),12) move(3,(16,9),(15,9),13) move(3,(15,9),(14,9),14) move(3,(14,9),(13,9),15) move(3,(13,9),(13,10),16) move(3,(13,10),(12,10),17) move(3,(12,10),(11,10),18) move(3,(11,10),(10,10),19) move(3,(10,10),(9,10),20) move(3,(9,10),(8,10),21) move(3,(8,10),(7,10),22) move(3,(7,10),(7,9),23) move(3,(7,9),(7,8),24) move(3,(7,8),(7,7),25) move(3,(7,7),(6,7),26)
SATISFIABLE

Models       : 1+
Calls        : 1
Time         : 1.477s (Solving: 0.05s 1st Model: 0.05s Unsat: 0.00s)
CPU Time     : 1.453s

Choices      : 233      (Domain: 233)
Conflicts    : 29       (Analyzed: 29)
Restarts     : 0       
Model-Level  : 55.0    
Problems     : 1        (Average Length: 0.00 Splits: 0)
Lemmas       : 29       (Deleted: 0)
  Binary     : 13       (Ratio:  44.83%)
  Ternary    : 2        (Ratio:   6.90%)
  Conflict   : 29       (Average Length:    4.5 Ratio: 100.00%) 
  Loop       : 0        (Average Length:    0.0 Ratio:   0.00%) 
  Other      : 0        (Average Length:    0.0 Ratio:   0.00%) 
Backjumps    : 29       (Average:  6.14 Max:  23 Sum:    178)
  Executed   : 29       (Average:  6.14 Max:  23 Sum:    178 Ratio: 100.00%)
  Bounded    : 0        (Average:  0.00 Max:   0 Sum:      0 Ratio:   0.00%)

Rules        : 462157   (Original: 420908)
  Choice     : 78      
  Heuristic  : 9948     (Original: 10276)
Atoms        : 254003   (Original: 239186 Auxiliary: 14817)
Bodies       : 264284   (Original: 237583)
  Count      : 93       (Original: 1065)
Equivalences : 177897   (Atom=Atom: 86 Body=Body: 92 Other: 177719)
Tight        : Yes
Variables    : 286457   (Eliminated:    0 Frozen: 167162)
Constraints  : 605983   (Binary:  82.6% Ternary:   7.3% Other:  10.1%)

